(set-option :print-success false)
(set-logic QF_UF)
(declare-sort x173 0)
(declare-fun x181 () x173)
(declare-fun x85 () x173)
(declare-fun x97 () x173)
(declare-fun x46 () x173)
(declare-fun x63 () x173)
(declare-fun x31 () x173)
(declare-fun x62 () x173)
(declare-fun x15 () x173)
(declare-fun x186 () x173)
(declare-fun x40 () x173)
(declare-fun x28 () x173)
(declare-fun x89 () x173)
(declare-fun x29 () x173)
(declare-fun x104 () x173)
(declare-fun x164 () x173)
(declare-fun x81 () x173)
(declare-fun x117 () x173)
(declare-fun x202 () x173)
(declare-fun x107 () x173)
(declare-fun x188 () x173)
(declare-fun x4 () x173)
(declare-fun x9 () x173)
(declare-fun x94 () x173)
(declare-fun x82 () x173)
(declare-fun x187 () x173)
(declare-fun x47 () x173)
(declare-fun x7 () x173)
(declare-fun x32 () x173)
(declare-fun x174 () x173)
(declare-fun x64 () x173)
(declare-fun x38 () x173)
(declare-fun x119 () x173)
(declare-fun x122 () x173)
(declare-fun x106 () x173)
(declare-fun x199 () x173)
(declare-fun x10 () x173)
(declare-fun x67 () x173)
(declare-fun x139 () x173)
(declare-fun x184 () x173)
(declare-fun x35 () x173)
(declare-fun x41 () x173)
(declare-fun x55 () x173)
(declare-fun x163 () x173)
(declare-fun x58 () x173)
(declare-fun x33 () x173)
(declare-fun x191 () x173)
(declare-fun x88 () x173)
(declare-fun x34 () x173)
(declare-fun x73 () x173)
(declare-fun x70 () x173)
(declare-fun x19 () x173)
(declare-fun x135 () x173)
(declare-fun x57 () x173)
(declare-fun x137 () x173)
(declare-fun x43 () x173)
(declare-fun x136 () x173)
(declare-fun x130 () x173)
(declare-fun x91 () x173)
(declare-fun x69 () x173)
(declare-fun x201 () x173)
(declare-fun x52 () x173)
(declare-fun x24 () x173)
(declare-fun x86 () x173)
(declare-fun x133 () x173)
(declare-fun x44 () x173)
(declare-fun x142 () x173)
(declare-fun x156 () x173)
(declare-fun x177 () x173)
(declare-fun x59 () x173)
(declare-fun x118 () x173)
(declare-fun x111 () x173)
(declare-fun x78 () x173)
(declare-fun x90 () x173)
(declare-fun x147 () x173)
(declare-fun x197 () x173)
(declare-fun x179 () x173)
(declare-fun x18 () x173)
(declare-fun x75 () x173)
(declare-fun x200 () x173)
(declare-fun x102 () x173)
(declare-fun x145 () x173)
(declare-fun x103 () x173)
(declare-fun x30 () x173)
(declare-fun x168 () x173)
(declare-fun x128 () x173)
(declare-fun x79 () x173)
(declare-fun x87 () x173)
(declare-fun x61 () x173)
(declare-fun x1 () x173)
(declare-fun x25 () x173)
(declare-fun x143 () x173)
(declare-fun x129 () x173)
(declare-fun x109 () x173)
(declare-fun x154 () x173)
(declare-fun x127 () x173)
(declare-fun x54 () x173)
(declare-fun x138 () x173)
(declare-fun x92 () x173)
(declare-fun x45 () x173)
(declare-fun x105 () x173)
(declare-fun x5 () x173)
(declare-fun x93 () x173)
(declare-fun x77 () x173)
(declare-fun x176 () x173)
(declare-fun x121 () x173)
(declare-fun x169 () x173)
(declare-fun x124 () x173)
(declare-fun x68 () x173)
(declare-fun x101 () x173)
(declare-fun x198 () x173)
(declare-fun x120 () x173)
(declare-fun x150 () x173)
(declare-fun x175 () x173)
(declare-fun x144 () x173)
(declare-fun x42 () x173)
(declare-fun x12 () x173)
(declare-fun x100 () x173)
(declare-fun x178 () x173)
(declare-fun x74 () x173)
(declare-fun x196 () x173)
(declare-fun x49 () x173)
(declare-fun x153 () x173)
(declare-fun x51 () x173)
(declare-fun x148 () x173)
(declare-fun x160 () x173)
(declare-fun x152 () x173)
(declare-fun x6 () x173)
(declare-fun x84 () x173)
(declare-fun x132 () x173)
(declare-fun x21 () x173)
(declare-fun x193 () x173)
(declare-fun x98 () x173)
(declare-fun x83 () x173)
(declare-fun x66 () x173)
(declare-fun x3 () x173)
(declare-fun x72 () x173)
(declare-fun x171 () x173)
(declare-fun x96 () x173)
(declare-fun x53 () x173)
(declare-fun x112 () x173)
(declare-fun x192 () x173)
(declare-fun x116 () x173)
(declare-fun x16 () x173)
(declare-fun x158 () x173)
(declare-fun x2 () x173)
(declare-fun x56 () x173)
(declare-fun x185 () x173)
(declare-fun x140 () x173)
(declare-fun x99 () x173)
(declare-fun x11 () x173)
(declare-fun x155 () x173)
(declare-fun x161 () x173)
(declare-fun x60 () x173)
(declare-fun x115 () x173)
(declare-fun x195 () x173)
(declare-fun x172 () x173)
(declare-fun x182 () x173)
(declare-fun x14 () x173)
(declare-fun x20 () x173)
(declare-fun x80 () x173)
(declare-fun x134 () x173)
(declare-fun x157 () x173)
(declare-fun x71 () x173)
(declare-fun x23 () x173)
(declare-fun x131 () x173)
(declare-fun x146 () x173)
(declare-fun x27 () x173)
(declare-fun x141 () x173)
(declare-fun x39 () x173)
(declare-fun x114 () x173)
(declare-fun x76 () x173)
(declare-fun x26 () x173)
(declare-fun x170 () x173)
(declare-fun x151 () x173)
(declare-fun x8 () x173)
(declare-fun x13 () x173)
(declare-fun x123 () x173)
(declare-fun x36 () x173)
(declare-fun x65 () x173)
(declare-fun x37 () x173)
(declare-fun x110 () x173)
(declare-fun x17 () x173)
(declare-fun x113 () x173)
(declare-fun x183 () x173)
(declare-fun x166 () x173)
(declare-fun x50 () x173)
(declare-fun x95 () x173)
(declare-fun x165 () x173)
(declare-fun x167 () x173)
(declare-fun x180 () x173)
(declare-fun x108 () x173)
(declare-fun x162 () x173)
(declare-fun x125 () x173)
(declare-fun x190 () x173)
(declare-fun x22 () x173)
(declare-fun x48 () x173)
(declare-fun x159 () x173)
(declare-fun x194 () x173)
(declare-fun x149 () x173)
(declare-fun x126 () x173)
(declare-fun x189 () x173)
(assert (and (or (and (= x149 x41) (= x149 x113)) (and (= x14 x113) (= x14 x41))) (or (and (= x61 x39) (= x61 x152)) (and (= x152 x54) (= x54 x39))) (or (and (= x140 x8) (= x55 x140)) (and (= x91 x8) (= x55 x91))) (or (and (= x45 x67) (= x22 x45)) (and (= x163 x67) (= x163 x22))) (or (and (= x27 x3) (= x39 x3)) (and (= x39 x12) (= x12 x27))) (or (and (= x117 x76) (= x181 x76)) (and (= x117 x80) (= x181 x80))) (or (and (= x62 x181) (= x99 x62)) (and (= x181 x23) (= x99 x23))) (or (and (= x41 x110) (= x99 x110)) (and (= x99 x1) (= x1 x41))) (or (and (= x47 x95) (= x126 x47)) (and (= x44 x95) (= x44 x126))) (or (and (= x114 x165) (= x186 x114)) (and (= x186 x160) (= x160 x165))) (or (and (= x67 x77) (= x190 x77)) (and (= x141 x67) (= x190 x141))) (or (and (= x138 x85) (= x183 x138)) (and (= x85 x120) (= x120 x183))) (or (and (= x108 x171) (= x108 x191)) (and (= x191 x84) (= x84 x171))) (or (and (= x24 x112) (= x111 x24)) (and (= x112 x179) (= x111 x179))) (or (and (= x49 x194) (= x194 x200)) (and (= x46 x200) (= x49 x46))) (or (and (= x75 x129) (= x129 x170)) (and (= x133 x75) (= x133 x170))) (or (and (= x33 x4) (= x168 x4)) (and (= x16 x33) (= x16 x168))) (or (and (= x164 x49) (= x102 x164)) (and (= x49 x51) (= x51 x102))) (or (and (= x42 x22) (= x42 x65)) (and (= x103 x65) (= x103 x22))) (or (and (= x100 x20) (= x111 x100)) (and (= x111 x196) (= x196 x20))) (or (and (= x59 x32) (= x59 x69)) (and (= x32 x145) (= x69 x145))) (or (and (= x63 x32) (= x70 x63)) (and (= x70 x139) (= x139 x32))) (or (and (= x124 x35) (= x115 x35)) (and (= x115 x176) (= x124 x176))) (or (and (= x147 x155) (= x170 x155)) (and (= x146 x147) (= x146 x170))) (or (and (= x124 x144) (= x195 x144)) (and (= x29 x124) (= x29 x195))) (or (and (= x66 x188) (= x71 x66)) (and (= x116 x71) (= x188 x116))) (or (and (= x18 x90) (= x93 x18)) (and (= x93 x128) (= x128 x90))) (or (and (= x55 x123) (= x27 x123)) (and (= x55 x6) (= x6 x27))) (or (and (= x158 x201) (= x201 x70)) (and (= x64 x70) (= x64 x158))) (or (and (= x85 x56) (= x158 x56)) (and (= x85 x127) (= x158 x127))) (or (and (= x94 x79) (= x93 x94)) (and (= x79 x7) (= x7 x93))) (or (and (= x8 x136) (= x72 x136)) (and (= x81 x72) (= x81 x8))) (or (and (= x180 x90) (= x161 x180)) (and (= x90 x40) (= x161 x40))) (or (and (= x57 x10) (= x10 x9)) (and (= x109 x57) (= x109 x9))) (not (= x20 x115)) (or (and (= x135 x126) (= x135 x57)) (and (= x126 x125) (= x125 x57))) (or (and (= x78 x102) (= x78 x86)) (and (= x104 x86) (= x104 x102))) (or (and (= x156 x162) (= x188 x162)) (and (= x156 x153) (= x188 x153))) (or (and (= x193 x11) (= x11 x174)) (and (= x174 x178) (= x178 x193))) (or (and (= x171 x106) (= x184 x106)) (and (= x184 x98) (= x98 x171))) (or (and (= x30 x9) (= x113 x30)) (and (= x9 x185) (= x185 x113))) (or (and (= x165 x53) (= x87 x53)) (and (= x165 x166) (= x166 x87))) (or (and (= x157 x117) (= x65 x157)) (and (= x48 x65) (= x48 x117))) (or (and (= x172 x43) (= x43 x184)) (and (= x38 x172) (= x38 x184))) (or (and (= x198 x199) (= x199 x17)) (and (= x82 x17) (= x198 x82))) (or (and (= x33 x167) (= x87 x167)) (and (= x28 x33) (= x28 x87))) (or (and (= x121 x97) (= x189 x121)) (and (= x97 x192) (= x189 x192))) (or (and (= x89 x37) (= x15 x37)) (and (= x89 x187) (= x187 x15))) (or (and (= x130 x147) (= x130 x186)) (and (= x60 x186) (= x147 x60))) (or (and (= x137 x161) (= x137 x52)) (and (= x73 x161) (= x73 x52))) (or (and (= x74 x83) (= x79 x74)) (and (= x79 x2) (= x83 x2))) (or (and (= x88 x156) (= x88 x198)) (and (= x151 x156) (= x151 x198))) (or (and (= x150 x197) (= x150 x86)) (and (= x202 x197) (= x202 x86))) (or (and (= x5 x195) (= x5 x75)) (and (= x195 x13) (= x75 x13))) (or (and (= x190 x36) (= x36 x83)) (and (= x83 x175) (= x175 x190))) (or (and (= x69 x68) (= x68 x168)) (and (= x69 x143) (= x168 x143))) (or (and (= x17 x58) (= x58 x183)) (and (= x105 x183) (= x105 x17))) (or (and (= x191 x101) (= x152 x101)) (and (= x96 x152) (= x96 x191))) (or (and (= x169 x52) (= x197 x169)) (and (= x177 x197) (= x177 x52))) (or (and (= x131 x174) (= x25 x131)) (and (= x174 x92) (= x25 x92))) (or (and (= x172 x142) (= x142 x112)) (and (= x50 x112) (= x172 x50))) (or (and (= x122 x25) (= x122 x71)) (and (= x132 x71) (= x25 x132))) (or (and (= x34 x97) (= x95 x34)) (and (= x159 x97) (= x95 x159))) (or (and (= x15 x31) (= x31 x72)) (and (= x26 x15) (= x72 x26))) (or (and (= x107 x21) (= x189 x107)) (and (= x21 x148) (= x189 x148))) (or (and (= x134 x193) (= x21 x134)) (and (= x118 x21) (= x193 x118))) (or (and (= x200 x119) (= x89 x119)) (and (= x200 x19) (= x19 x89)))))
(check-sat)
(exit)
